
Gurobi 12.0.2 (win64) logging started Mon Sep 15 14:20:19 2025

Set parameter LogFile to value "C:\Ioana\_uni\honours\slp\algorithm\Main_files\results\paracetamol with updated samples\Task_002_Sample007_irr_gurobi.log"
Gurobi Optimizer version 12.0.2 build v12.0.2rc0 (win64 - Windows 11.0 (26100.2))

CPU model: Intel(R) Core(TM) Ultra 5 125H, instruction set [SSE2|AVX|AVX2]
Thread count: 14 physical cores, 18 logical processors, using up to 18 threads

Non-default parameters:
TimeLimit  2200

Optimize a model with 47236 rows, 34503 columns and 146713 nonzeros
Model fingerprint: 0x7a785a75
Variable types: 17254 continuous, 17249 integer (17249 binary)
Coefficient statistics:
  Matrix range     [1e-04, 8e+04]
  Objective range  [1e-04, 9e-01]
  Bounds range     [1e+00, 1e+03]
  RHS range        [1e+00, 1e+00]
Found heuristic solution: objective 0.0348174
Presolve removed 41959 rows and 30172 columns
Presolve time: 0.30s
Presolved: 5277 rows, 4331 columns, 16289 nonzeros
Variable types: 2133 continuous, 2198 integer (2198 binary)

Root relaxation: objective 1.175254e-02, 173 iterations, 0.01 seconds (0.01 work units)

    Nodes    |    Current Node    |     Objective Bounds      |     Work
 Expl Unexpl |  Obj  Depth IntInf | Incumbent    BestBd   Gap | It/Node Time

     0     0    0.01175    0    2    0.03482    0.01175  66.2%     -    0s
H    0     0                       0.0166759    0.01175  29.5%     -    0s
     0     0    0.01175    0    2    0.01668    0.01175  29.5%     -    0s

Explored 1 nodes (173 simplex iterations) in 0.33 seconds (0.36 work units)
Thread count was 18 (of 18 available processors)

Solution count 2: 0.0166759 0.0348174 

Optimal solution found (tolerance 1.00e-04)
Best objective 1.667585797704e-02, best bound 1.667585797704e-02, gap 0.0000%
